# Objective value = 1.4295269558727046e+05
x_0 -2.7327571042752662e+05
x_1 -1.3982247969855135e+05
x_2 -3.5950690070771548e+05
x_3 -3.9580085676571477e+05
x_4 1.4295269558727046e+05
x_5 1.2582923376518599e+05
x_6 1.6434911495702906e+05
x_7 -383177.184710953
x_8 2.9991267496778374e+05
x_9 1.4879067411518269e+05
alpha_0 1
alpha_1 1
alpha_2 1
alpha_3 1
alpha_4 1
alpha_5 1
alpha_6 1
alpha_7 1
alpha_8 1
alpha_9 1
